
******************************************************************************
This program contains Ipopt, a library for large-scale nonlinear optimization.
 Ipopt is released as open source code under the Eclipse Public License (EPL).
         For more information visit http://projects.coin-or.org/Ipopt

This version of Ipopt was compiled from source code available at
    https://github.com/IDAES/Ipopt as part of the Institute for the Design of
    Advanced Energy Systems Process Systems Engineering Framework (IDAES PSE
    Framework) Copyright (c) 2018-2019. See https://github.com/IDAES/idaes-pse.

This version of Ipopt was compiled using HSL, a collection of Fortran codes
    for large-scale scientific computation.  All technical papers, sales and
    publicity material resulting from use of the HSL codes within IPOPT must
    contain the following acknowledgement:
        HSL, a collection of Fortran codes for large-scale scientific
        computation. See http://www.hsl.rl.ac.uk.
******************************************************************************

This is Ipopt version 3.13.2, running with linear solver ma27.

Number of nonzeros in equality constraint Jacobian...:      928
Number of nonzeros in inequality constraint Jacobian.:        0
Number of nonzeros in Lagrangian Hessian.............:      806

Total number of variables............................:      403
                     variables with only lower bounds:      124
                variables with lower and upper bounds:      217
                     variables with only upper bounds:        0
Total number of equality constraints.................:      402
Total number of inequality constraints...............:        0
        inequality constraints with only lower bounds:        0
   inequality constraints with lower and upper bounds:        0
        inequality constraints with only upper bounds:        0

iter    objective    inf_pr   inf_du lg(mu)  ||d||  lg(rg) alpha_du alpha_pr  ls
   0  0.0000000e+00 8.68e-01 6.84e-13  -1.0 0.00e+00    -  0.00e+00 0.00e+00   0
   1  6.4498536e-01 8.47e-01 4.14e+04  -1.0 1.61e+07    -  1.30e-02 3.26e-03h  5
   2  1.0906558e+00 8.44e-01 4.44e+04  -1.0 1.89e+07    -  1.25e-02 9.65e-04h  7
   3  1.4085615e+00 8.43e-01 4.51e+04  -1.0 2.04e+07    -  1.21e-02 5.61e-04h  8
   4  1.5736353e+00 8.43e-01 4.52e+04  -1.0 2.20e+07    -  1.18e-02 2.62e-04h  9
   5  1.3170713e+02 6.69e-01 3.86e+06  -1.0 2.66e+07    -  1.34e-02 2.83e-02h  2
   6  5.3289036e+02 7.90e-01 3.61e+06  -1.0 3.56e+07    -  2.02e-02 2.55e-02h  1
   7  5.4054773e+02 7.90e-01 3.61e+06  -1.0 4.53e+07    -  2.74e-02 2.57e-04h  1
   8  5.4047503e+02 7.90e-01 3.61e+06  -1.0 8.59e+07    -  2.67e-02 4.86e-06f  2
   9  5.3908802e+02 7.90e-01 3.78e+06  -1.0 1.19e+08    -  1.50e-02 4.48e-05f  8
iter    objective    inf_pr   inf_du lg(mu)  ||d||  lg(rg) alpha_du alpha_pr  ls
  10  5.3841296e+02 7.90e-01 1.40e+07  -1.0 1.19e+08    -  1.51e-02 2.20e-05f  9
  11  5.3825079e+02 7.91e-01 2.00e+08  -1.0 1.41e+08    -  1.81e-02 5.31e-06f  9
  12  5.3803870e+02 7.94e-01 1.20e+09  -1.0 1.19e+08    -  8.84e-03 6.82e-06f  9
  13  5.3796968e+02 7.94e-01 5.62e+09  -1.0 1.73e+08    -  1.98e-02 2.27e-06f 12
  14  5.2382316e+02 1.57e+00 5.41e+11  -1.0 4.21e+08    -  1.91e-03 5.29e-04f  1
  15  4.7788236e+02 3.45e+01 7.49e+11  -1.0 1.19e+08    -  2.21e-02 5.76e-03f  1
  16  4.2244538e+02 3.82e+01 7.70e+11  -1.0 1.05e+08    -  2.08e-02 5.40e-03f  1
  17  3.7665271e+02 5.16e+01 8.00e+11  -1.0 1.30e+08    -  1.73e-02 6.30e-03f  1
  18  3.3734762e+02 5.33e+01 8.24e+11  -1.0 1.35e+08    -  1.76e-02 5.44e-03f  1
  19  3.1492979e+02 5.94e+01 9.42e+11  -1.0 1.30e+08    -  1.77e-02 1.14e-02f  1
iter    objective    inf_pr   inf_du lg(mu)  ||d||  lg(rg) alpha_du alpha_pr  ls
  20  3.0406885e+02 5.93e+01 9.45e+11  -1.0 3.47e+08    -  3.95e-03 2.03e-03F  1
  21  4.6661527e+02 5.88e+01 1.03e+12  -1.0 7.11e+07    -  1.82e-02 9.14e-03h  6
  22  4.6748054e+02 5.88e+01 1.03e+12  -1.0 1.10e+08    -  1.89e-02 2.74e-05h  9
  23r 4.6748054e+02 5.88e+01 1.00e+03   1.8 0.00e+00    -  0.00e+00 2.60e-07R 12
  24r 4.6747953e+02 3.05e+01 9.95e+02   1.8 1.21e+04    -  7.50e-03 2.64e-03f  1
  25r 4.6747953e+02 3.05e+01 9.99e+02   1.5 0.00e+00    -  0.00e+00 1.42e-07R  2
  26r 4.6747897e+02 9.49e+00 9.96e+02   1.5 1.28e+04    -  5.08e-03 2.29e-03f  1
  27  5.2116750e+02 9.47e+00 7.75e+03  -1.0 1.01e+08    -  2.12e-02 1.73e-03h  1
  28  5.2117100e+02 9.47e+00 7.75e+03  -1.0 2.29e+08    -  2.12e-02 1.09e-05h 11
  29  5.2113410e+02 9.47e+00 7.75e+03  -1.0 2.72e+08    -  2.22e-02 9.15e-06f 11
iter    objective    inf_pr   inf_du lg(mu)  ||d||  lg(rg) alpha_du alpha_pr  ls
  30r 5.2113410e+02 9.47e+00 1.00e+03   1.0 0.00e+00    -  0.00e+00 4.74e-07R 18
  31r 5.2113358e+02 4.15e+00 9.97e+02   1.0 1.02e+04    -  2.90e-03 2.22e-03f  1
  32  6.0124324e+02 4.14e+00 1.18e+02  -1.0 1.09e+08    -  2.21e-02 2.18e-03h  7
  33  6.9334358e+02 4.14e+00 1.93e+02  -1.0 1.25e+08    -  2.18e-02 2.03e-03h  8
  34  7.4052752e+02 4.13e+00 2.12e+02  -1.0 1.46e+08    -  2.04e-02 8.67e-04h  9
  35  7.4024020e+02 4.13e+00 3.18e+03  -1.0 1.08e+09    -  8.87e-03 2.46e-06f  8
  36  7.4113485e+02 4.13e+00 3.27e+03  -1.0 1.61e+08    -  2.06e-02 1.52e-05h 15
  37r 7.4113485e+02 4.13e+00 1.00e+03   0.6 0.00e+00    -  0.00e+00 3.92e-07R 19
  38r 7.4113345e+02 4.09e+00 9.97e+02   0.6 6.57e+03    -  5.06e-03 2.08e-03f  1
  39r 7.4112699e+02 3.92e+00 9.91e+02   0.6 4.25e+03    -  4.44e-03 5.69e-03f  1
iter    objective    inf_pr   inf_du lg(mu)  ||d||  lg(rg) alpha_du alpha_pr  ls
  40r 7.4112699e+02 3.81e+00 9.90e+02   0.6 9.27e+00   2.0 2.51e-02 1.87e-02f  1
  41r 7.4112537e+02 3.58e+00 9.88e+02   0.6 1.42e+04    -  2.21e-03 2.10e-03f  1
  42r 7.4112537e+02 3.58e+00 9.99e+02   0.6 0.00e+00    -  0.00e+00 1.87e-07R  2
  43r 7.4112502e+02 3.52e+00 9.98e+02   0.6 3.28e+03    -  5.62e-03 1.05e-03f  1
  44r 7.4112429e+02 3.43e+00 9.93e+02   0.6 1.21e+03    -  4.22e-03 4.57e-03f  1
  45r 7.4112331e+02 3.19e+00 9.85e+02   0.6 1.82e+03    -  1.19e-02 8.64e-03f  1
  46  7.4195591e+02 3.19e+00 4.67e+04  -1.0 1.36e+08    -  1.64e-02 1.90e-05h  1
  47  7.5341894e+02 3.19e+00 4.77e+04  -1.0 1.36e+09    -  1.66e-03 5.29e-05h  7
  48  8.0131673e+02 3.18e+00 4.83e+04  -1.0 1.51e+09    -  1.55e-03 1.89e-04h  5
  49  8.4868656e+02 3.18e+00 4.93e+04  -1.0 2.49e+09    -  1.05e-03 1.10e-04h  5
iter    objective    inf_pr   inf_du lg(mu)  ||d||  lg(rg) alpha_du alpha_pr  ls
  50  9.4495637e+02 3.18e+00 5.26e+04  -1.0 6.30e+09    -  4.67e-04 8.15e-05h  4
  51  7.3434330e+02 1.25e+01 2.65e+06  -1.0 2.85e+09    -  1.23e-03 5.97e-04f  2
  52  7.3904839e+02 1.25e+01 2.65e+06  -1.0 1.65e+09    -  2.01e-03 1.65e-05h 10
  53  1.6829417e+03 1.25e+01 2.57e+06  -1.0 1.68e+09    -  2.00e-03 2.00e-03s 16
  54r 1.6829417e+03 1.25e+01 1.00e+03   1.1 0.00e+00    -  0.00e+00 0.00e+00R  1
  55r 1.6829416e+03 3.15e+00 9.95e+02   1.1 9.35e+03    -  3.05e-02 1.32e-03f  1
  56r 1.6829401e+03 1.49e+00 9.69e+02   1.1 1.63e+03    -  1.28e-02 2.60e-02f  1
  57  1.2573678e+03 1.49e+00 1.46e+04  -1.0 6.69e+08    -  1.19e-02 2.49e-03f  3
  58  2.0079986e+03 1.49e+00 2.00e+04  -1.0 2.49e+09    -  2.01e-03 8.62e-04h  5
  59  2.6233764e+03 1.49e+00 2.26e+04  -1.0 2.46e+09    -  2.89e-03 5.39e-04h  6
iter    objective    inf_pr   inf_du lg(mu)  ||d||  lg(rg) alpha_du alpha_pr  ls
  60  3.5554660e+03 1.49e+00 2.63e+04  -1.0 2.39e+09    -  3.90e-03 6.93e-04h  6
  61  4.1848309e+03 1.49e+00 2.76e+04  -1.0 2.30e+09    -  2.31e-02 4.22e-04h  7
  62  4.2636728e+03 1.49e+00 2.77e+04  -1.0 2.24e+09    -  6.23e-03 5.13e-05h 10
  63  4.3031848e+03 1.49e+00 2.77e+04  -1.0 2.24e+09    -  2.32e-02 2.56e-05h 11
  64  2.1041214e+04 1.77e+00 2.60e+05  -1.0 2.23e+09    -  6.45e-03 6.45e-03s 17
  65r 2.1041214e+04 1.77e+00 1.00e+03   0.2 0.00e+00    -  0.00e+00 0.00e+00R  1
  66r 2.1041213e+04 1.31e+00 9.98e+02   0.2 4.73e+03    -  1.07e-02 1.04e-03f  1
  67  2.1221311e+04 1.31e+00 2.98e+02  -1.0 1.55e+09    -  1.83e-03 6.94e-05h  8
  68  2.1449144e+04 1.31e+00 3.43e+02  -1.0 1.54e+09    -  1.78e-03 8.76e-05h  8
  69  2.1668335e+04 1.31e+00 3.90e+02  -1.0 1.53e+09    -  1.78e-03 8.41e-05h  8
iter    objective    inf_pr   inf_du lg(mu)  ||d||  lg(rg) alpha_du alpha_pr  ls
  70  2.1874892e+04 1.31e+00 7.77e+02  -1.0 1.52e+09    -  1.33e-02 7.90e-05h  8
  71  2.2068223e+04 1.31e+00 8.33e+02  -1.0 1.51e+09    -  1.85e-03 7.37e-05h  8
  72  2.2157793e+04 1.31e+00 1.52e+03  -1.0 1.51e+09    -  1.92e-02 3.41e-05h  9
  73  2.2243709e+04 1.31e+00 1.58e+03  -1.0 1.50e+09    -  1.54e-03 3.26e-05h  9
  74  2.2325854e+04 1.31e+00 2.53e+03  -1.0 1.50e+09    -  2.28e-02 3.11e-05h  9
  75  2.2404098e+04 1.31e+00 2.59e+03  -1.0 1.50e+09    -  1.40e-03 2.95e-05h  9
  76  2.2478296e+04 1.31e+00 4.10e+03  -1.0 1.49e+09    -  2.89e-02 2.79e-05h  9
  77  4.7195438e+04 7.34e+01 9.26e+05  -1.0 1.55e+09    -  1.25e-03 6.71e-03w  1
  78  6.3365392e+04 7.29e+01 9.11e+05  -1.0 9.06e+08    -  1.28e-02 6.54e-03w  1
  79  6.3445285e+04 7.29e+01 9.11e+05  -1.0 3.94e+08    -  1.20e-02 5.56e-05w  1
iter    objective    inf_pr   inf_du lg(mu)  ||d||  lg(rg) alpha_du alpha_pr  ls
  80  2.2548288e+04 1.31e+00 4.17e+03  -1.0 3.89e+08    -  1.25e-03 2.62e-05h  8
  81  2.2613898e+04 1.31e+00 6.61e+03  -1.0 1.68e+09    -  3.40e-02 2.45e-05h  9
  82  2.2674925e+04 1.31e+00 6.71e+03  -1.0 1.84e+09    -  1.08e-03 2.26e-05h  9
  83r 2.2674925e+04 1.31e+00 1.00e+03   0.1 0.00e+00    -  0.00e+00 3.23e-07R 15
  84r 2.2674924e+04 5.81e-01 9.95e+02   0.1 5.71e+03    -  9.48e-03 3.69e-03f  1
  85r 2.2674924e+04 5.81e-01 9.99e+02  -0.2 0.00e+00    -  0.00e+00 4.20e-07R 14
  86r 2.2674923e+04 5.54e-01 9.97e+02  -0.2 6.11e+03    -  1.05e-02 2.46e-03f  1
  87r 2.2674921e+04 5.35e-01 9.90e+02  -0.2 2.48e+03    -  1.69e-02 6.77e-03f  1
  88r 2.2674921e+04 5.76e-01 9.84e+02  -0.2 1.84e+03  -2.0 2.42e-03 6.25e-03f  1
  89r 2.2674917e+04 5.56e-01 9.73e+02  -0.2 7.58e+02    -  2.00e-02 1.16e-02f  1
iter    objective    inf_pr   inf_du lg(mu)  ||d||  lg(rg) alpha_du alpha_pr  ls
  90r 2.2674911e+04 5.11e-01 9.51e+02  -0.2 7.12e+02    -  1.13e-01 2.21e-02f  1
  91  2.2951035e+04 5.11e-01 5.96e+02  -1.0 4.44e+09    -  2.24e-03 3.65e-05h  6
  92  2.3153284e+04 5.11e-01 1.08e+03  -1.0 4.42e+09    -  2.83e-03 2.67e-05h  8
  93  2.3338576e+04 5.11e-01 2.14e+03  -1.0 4.41e+09    -  6.12e-03 2.44e-05h  9
  94  2.3560389e+04 5.11e-01 2.71e+03  -1.0 4.40e+09    -  3.37e-03 2.91e-05h  9
  95  2.3774148e+04 5.11e-01 5.44e+03  -1.0 4.39e+09    -  1.62e-02 2.80e-05h  9
  96r 2.3774148e+04 5.11e-01 1.00e+03  -0.3 0.00e+00    -  0.00e+00 4.20e-07R 15
  97r 2.3774144e+04 1.02e+00 9.89e+02  -0.3 3.54e+03    -  1.13e-02 1.13e-02f  1
  98r 2.3774144e+04 9.26e-01 1.01e+03  -0.3 1.73e-01   4.0 8.78e-02 8.90e-02f  1
  99r 2.3774140e+04 9.14e-01 8.99e+02  -0.3 8.86e+02    -  2.02e-01 1.11e-02f  1
iter    objective    inf_pr   inf_du lg(mu)  ||d||  lg(rg) alpha_du alpha_pr  ls
 100r 2.3774140e+04 6.93e-01 7.70e+02  -0.3 1.90e-01   3.5 5.36e-02 2.40e-01f  1
 101r 2.3774140e+04 5.09e-01 5.15e+02  -0.3 1.51e-01   3.0 9.07e-01 2.84e-01f  1
 102r 2.3774140e+04 5.09e-01 2.04e+02  -0.3 9.87e-02   2.6 4.35e-01 7.03e-01f  1
 103r 2.3774140e+04 5.09e-01 9.04e+01  -0.3 8.60e-02   3.0 9.94e-01 1.00e+00H  1
 104r 2.3774140e+04 5.09e-01 5.36e+02  -0.3 4.08e-02   3.4 1.00e+00 1.00e+00f  1
 105r 2.3774140e+04 5.09e-01 2.78e+03  -0.3 2.23e-01   2.9 4.91e-01 2.49e-01h  1
 106r 2.3774140e+04 5.09e-01 2.74e+03  -0.3 1.58e+00   2.5 2.05e-01 1.54e-02f  1
 107r 2.3774140e+04 5.98e-01 9.67e+02  -0.3 6.70e-01   2.0 5.06e-03 6.30e-01f  1
 108r 2.3774140e+04 5.99e-01 9.55e+02  -0.3 5.04e-01   2.4 1.00e+00 8.36e-03h  1
 109r 2.3774140e+04 5.41e-01 7.25e+02  -0.3 1.62e-01   1.9 9.87e-01 1.00e+00f  1
iter    objective    inf_pr   inf_du lg(mu)  ||d||  lg(rg) alpha_du alpha_pr  ls
 110r 2.3774140e+04 5.31e-01 2.72e+03  -0.3 1.41e-01   2.4 4.37e-01 2.18e-01h  1
 111r 2.3774140e+04 5.31e-01 2.64e+03  -0.3 2.22e-02   2.8 1.00e+00 2.94e-02h  1
 112r 2.3774140e+04 5.25e-01 7.45e+02  -0.3 1.33e-02   3.2 1.00e+00 1.00e+00f  1
 113r 2.3774140e+04 5.23e-01 2.82e+03  -0.3 6.55e-02   2.7 4.30e-01 2.26e-01h  1
 114r 2.3774140e+04 5.23e-01 2.73e+03  -0.3 2.06e-02   3.2 1.00e+00 3.06e-02h  1
 115r 2.3774140e+04 5.11e-01 7.80e+02  -0.3 3.45e-02   2.7 7.96e-01 1.00e+00f  1
 116r 2.3774140e+04 5.10e-01 2.88e+03  -0.3 6.64e-02   3.1 4.17e-01 2.24e-01h  1
 117r 2.3774140e+04 5.08e-01 2.80e+03  -0.3 1.53e-01   2.6 5.91e-01 2.73e-02h  1
 118r 2.3774140e+04 5.08e-01 8.62e+02  -0.3 2.43e-02   3.1 1.00e+00 1.00e+00f  1
 119r 2.3774140e+04 1.64e+00 2.00e+03  -0.3 2.23e+00   2.6 4.62e-02 1.56e-01f  1
iter    objective    inf_pr   inf_du lg(mu)  ||d||  lg(rg) alpha_du alpha_pr  ls
 120r 2.3774140e+04 1.64e+00 2.00e+03  -0.3 1.75e+00   2.1 1.17e-01 1.36e-03f  1
 121r 2.3774140e+04 1.63e+00 1.99e+03  -0.3 9.76e-01   1.6 6.64e-02 7.07e-03f  1
 122r 2.3774140e+04 5.08e-01 4.02e+03  -0.3 7.05e-01   1.2 1.46e-03 3.27e-01h  1
 123r 2.3774140e+04 5.08e-01 3.53e+03  -0.3 2.45e-01   3.4 4.77e-01 1.24e-01f  1
 124r 2.3774140e+04 5.08e-01 3.22e+03  -0.3 4.87e-01   2.9 6.99e-03 9.78e-02f  1
 125r 2.3774140e+04 5.08e-01 3.20e+03  -0.3 6.82e+00   2.4 3.09e-02 4.55e-03f  1
 126r 2.3774140e+04 5.08e-01 2.74e+03  -0.3 1.76e-01   2.0 9.73e-01 1.44e-01h  1
 127r 2.3774140e+04 5.08e-01 2.24e+03  -0.3 2.72e-01   1.5 1.00e+00 1.87e-01h  1
 128r 2.3774140e+04 5.06e-01 7.36e+02  -0.3 1.11e+00   1.0 4.68e-01 8.65e-01H  1
 129r 2.3774140e+04 5.01e-01 4.35e+02  -0.3 2.66e+00   0.5 1.00e+00 6.42e-01f  1
iter    objective    inf_pr   inf_du lg(mu)  ||d||  lg(rg) alpha_du alpha_pr  ls
 130r 2.3774138e+04 5.06e-01 4.29e+02  -0.3 2.34e+03    -  7.59e-03 6.93e-03f  1
 131r 2.3774138e+04 5.06e-01 1.57e+03  -0.3 1.76e+00   0.0 5.42e-01 6.25e-02f  5
 132r 2.3774138e+04 5.06e-01 1.79e+03  -0.3 5.10e+00  -0.4 6.82e-01 7.82e-03f  5
 133r 2.3774138e+04 1.21e+00 1.14e+03  -0.3 1.40e+01  -0.9 3.59e-01 4.04e-01f  1
 134r 2.3774138e+04 4.40e+00 2.72e+03  -0.3 3.17e+01  -1.4 4.54e-01 2.24e-01f  1
 135r 2.3774138e+04 4.28e+00 2.64e+03  -0.3 1.38e+01  -1.0 1.00e+00 2.75e-02f  1
 136r 2.3774138e+04 5.12e-01 1.04e+03  -0.3 5.64e+00  -0.5 1.00e+00 1.00e+00f  1
 137r 2.3774138e+04 2.61e+00 5.03e+02  -0.3 2.34e+01  -0.1 1.00e+00 1.00e+00H  1
 138r 2.3774138e+04 2.46e+00 1.04e+03  -0.3 1.02e+01   0.3 3.23e-01 6.01e-02h  2
 139r 2.3774120e+04 5.12e-01 6.52e+02  -0.3 6.80e+02    -  1.00e+00 1.14e-01f  1
iter    objective    inf_pr   inf_du lg(mu)  ||d||  lg(rg) alpha_du alpha_pr  ls
 140r 2.3774043e+04 5.23e+01 3.41e+03  -0.3 6.02e+02    -  8.01e-01 8.26e-01f  1
 141r 2.3774043e+04 5.11e+01 3.33e+03  -0.3 5.23e+01  -0.2 3.59e-03 2.44e-02h  4
 142r 2.3774043e+04 5.00e+01 3.26e+03  -0.3 5.11e+01  -0.6 2.05e-01 2.15e-02h  4
 143r 2.3774043e+04 4.90e+01 3.19e+03  -0.3 5.00e+01  -1.1 2.74e-01 1.89e-02h  6
 144r 2.3774043e+04 4.82e+01 3.11e+03  -0.3 2.01e+03  -1.6 3.45e-03 1.61e-02f  2
 145r 2.3774043e+04 4.80e+01 3.09e+03  -0.3 4.80e+01   3.4 4.57e-03 4.63e-03h  1
 146r 2.3774043e+04 4.80e+01 3.09e+03  -0.3 2.73e+01   3.8 4.92e-05 1.28e-03h  3
 147r 2.3774043e+04 4.80e+01 3.09e+03  -0.3 3.18e+01   3.3 1.03e-03 2.43e-04h  7
 148r 2.3774043e+04 4.80e+01 3.09e+03  -0.3 3.18e+01   3.7 1.44e-03 9.95e-05h  7
 149r 2.3774043e+04 4.80e+01 3.09e+03  -0.3 3.17e+01   3.2 1.35e-04 4.18e-05h 11
iter    objective    inf_pr   inf_du lg(mu)  ||d||  lg(rg) alpha_du alpha_pr  ls
 150r 2.3774043e+04 4.80e+01 3.09e+03  -0.3 3.18e+01   3.7 0.00e+00 2.98e-07R 17
 151r 2.3774043e+04 4.80e+01 3.00e+03  -0.3 7.05e-01   3.2 3.64e-01 2.83e-02f  5
 152r 2.3774043e+04 4.80e+01 2.95e+03  -0.3 2.32e-01   3.6 9.97e-01 1.47e-02f  1
 153r 2.3774043e+04 4.79e+01 2.78e+03  -0.3 2.01e+00   3.1 2.03e-01 2.13e-01f  1
 154r 2.3774043e+04 4.79e+01 2.63e+03  -0.3 3.07e-01   3.6 6.55e-01 7.79e-02f  1
 155r 2.3774043e+04 4.77e+01 7.26e+02  -0.3 4.81e-01   3.1 1.00e+00 7.06e-01f  1
 156r 2.3774043e+04 4.77e+01 1.30e+03  -0.3 2.69e+00   2.6 3.80e-02 3.89e-02f  1
 157r 2.3774043e+04 4.69e+01 1.92e+03  -0.3 4.33e+00   2.1 1.00e+00 3.45e-01f  1
 158r 2.3774043e+04 4.27e+01 6.27e+02  -0.3 1.30e+01   1.7 1.00e+00 5.78e-01f  1
 159r 2.3774043e+04 3.63e+01 1.47e+03  -0.3 3.89e+01   1.2 7.90e-02 2.92e-01f  1
iter    objective    inf_pr   inf_du lg(mu)  ||d||  lg(rg) alpha_du alpha_pr  ls
 160r 2.3774043e+04 3.63e+01 1.46e+03  -0.3 1.09e+02   0.7 1.00e+00 1.04e-03f  1
 161r 2.3774043e+04 2.27e+01 1.36e+03  -0.3 1.96e+02   0.2 3.47e-02 6.93e-02f  1
 162r 2.3774043e+04 2.24e+01 1.36e+03  -0.3 5.87e+02  -0.2 5.25e-01 4.95e-04f  1
 163r 2.3774043e+04 5.08e-01 1.34e+03  -0.3 1.69e+03  -0.7 3.14e-02 1.31e-02f  1
 164r 2.3774043e+04 5.08e-01 1.33e+03  -0.3 1.06e+02  -1.2 1.00e+00 2.10e-03f  1
 165r 2.3774043e+04 8.01e-01 8.78e+02  -0.3 4.32e+01  -1.7 1.00e+00 5.31e-01f  1
 166r 2.3774039e+04 2.43e+00 7.98e+02  -0.3 3.76e+02    -  2.04e-01 3.74e-02H  1
 167r 2.3774044e+04 2.26e+00 7.05e+02  -0.3 1.50e+03    -  5.96e-03 2.59e-02h  3
 168r 2.3774043e+04 2.21e+00 6.83e+02  -0.3 3.52e+02    -  2.78e-02 1.94e-02h  4
 169r 2.3774043e+04 2.21e+00 6.47e+02  -0.3 3.45e+02    -  4.10e-02 6.09e-04h  9
iter    objective    inf_pr   inf_du lg(mu)  ||d||  lg(rg) alpha_du alpha_pr  ls
 170r 2.3774043e+04 2.21e+00 5.44e+02  -0.3 3.45e+02    -  1.24e-01 2.18e-04h 11
 171r 2.3774039e+04 2.12e+00 5.16e+02  -0.3 3.45e+02    -  4.36e-02 4.36e-02s 21
 172r 2.3774017e+04 1.65e+00 3.99e+02  -0.3 3.30e+02    -  2.20e-01 2.20e-01s 21
 173r 2.3774014e+04 1.57e+00 3.81e+02  -0.3 2.58e+02    -  4.54e-02 4.54e-02s 21
 174r 2.3774014e+04 1.57e+00 3.81e+02  -0.3 4.75e+02    -  0.00e+00 0.00e+00R  1
 175r 2.3774011e+04 1.39e+00 1.64e+03  -0.3 4.93e+02    -  8.08e-02 1.20e-01f  2
 176r 2.3774011e+04 1.15e+00 2.75e+03  -0.3 1.48e+01  -0.3 1.69e-01 1.70e-01f  1
 177r 2.3774011e+04 5.85e-01 2.18e+03  -0.3 5.14e+00   0.1 8.78e-01 5.17e-01f  1
 178r 2.3774011e+04 6.70e-01 5.92e+02  -0.3 7.56e+01  -0.4 2.60e-03 1.10e-01f  1
 179r 2.3774011e+04 6.70e-01 5.86e+02  -0.3 1.78e+01   0.9 4.45e-02 9.94e-03f  1
iter    objective    inf_pr   inf_du lg(mu)  ||d||  lg(rg) alpha_du alpha_pr  ls
 180r 2.3774011e+04 6.69e-01 2.02e+03  -0.3 8.72e-01   0.5 5.63e-01 4.13e-01f  1
 181r 2.3774011e+04 6.80e-01 3.27e+03  -0.3 7.25e+00  -0.0 3.64e-01 2.01e-01f  1
 182r 2.3774011e+04 7.02e-01 2.74e+03  -0.3 1.72e+01  -0.5 1.12e-01 1.60e-01f  1
 183r 2.3774011e+04 7.23e-01 1.70e+03  -0.3 7.99e+00  -0.1 1.00e+00 3.79e-01f  1
 184r 2.3774003e+04 7.23e-01 1.56e+03  -0.3 8.32e+02    -  2.66e-01 8.40e-02f  1
 185r 2.3774003e+04 7.23e-01 1.54e+03  -0.3 7.04e+02    -  2.24e-01 7.72e-03f  4
 186r 2.3774003e+04 7.51e-01 1.67e+03  -0.3 6.50e+00  -0.6 1.17e-01 7.14e-01f  1
 187r 2.3774003e+04 7.48e-01 2.04e+03  -0.3 3.41e+00  -1.0 7.46e-01 2.32e-01h  1
 188r 2.3774003e+04 7.48e-01 1.99e+03  -0.3 3.05e+02    -  1.00e+00 2.01e-02f  1
 189r 2.3773996e+04 7.55e-01 1.27e+03  -0.3 3.25e+02    -  4.28e-01 3.41e-01f  1
iter    objective    inf_pr   inf_du lg(mu)  ||d||  lg(rg) alpha_du alpha_pr  ls
 190r 2.3773996e+04 7.55e-01 1.26e+03  -0.3 2.95e+02  -1.5 1.86e-03 1.33e-02h  1
 191r 2.3773996e+04 7.55e-01 2.09e+03  -0.3 5.06e-01   4.3 1.33e-02 4.71e-02h  1
 192r 2.3773996e+04 7.55e-01 5.47e+03  -0.3 2.63e-01   4.8 5.19e-02 1.08e-01h  1
 193r 2.3773996e+04 7.55e-01 9.29e+03  -0.3 2.00e-01   5.2 1.57e-02 5.91e-02h  1
 194r 2.3773996e+04 7.55e-01 8.21e+03  -0.3 1.27e-01   5.6 6.45e-02 1.13e-01h  1
 195r 2.3773996e+04 7.54e-01 1.02e+04  -0.3 1.09e-01   5.1 1.45e-01 2.93e-01f  1
 196r 2.3773996e+04 7.54e-01 9.03e+03  -0.3 1.16e-01   4.7 7.68e-01 1.76e-01H  1
 197r 2.3773996e+04 7.54e-01 9.15e+03  -0.3 2.83e+02    -  1.62e-01 4.04e-03f  1
 198r 2.3773997e+04 7.55e-01 8.18e+03  -0.3 1.75e+02    -  1.00e+00 1.81e-01h  1
 199r 2.3773961e+04 7.55e-01 6.10e+03  -0.3 1.03e+03    -  1.00e+00 2.54e-01f  1
iter    objective    inf_pr   inf_du lg(mu)  ||d||  lg(rg) alpha_du alpha_pr  ls
 200r 2.3773975e+04 7.56e-01 5.33e+03  -0.3 6.35e+02    -  8.10e-03 1.26e-01h  1
 201r 2.3773977e+04 7.59e-01 5.26e+03  -0.3 2.00e+03    -  1.24e-02 1.30e-02h  1
 202r 2.3773977e+04 7.59e-01 4.70e+03  -0.3 3.66e-01   4.2 4.73e-03 1.55e-01h  1
 203r 2.3773977e+04 7.59e-01 4.63e+03  -0.3 1.54e-01   3.7 1.39e-01 2.08e-03h  1
 204r 2.3773977e+04 7.59e-01 3.82e+03  -0.3 2.26e-01   3.2 3.24e-02 1.77e-01h  1
 205r 2.3773977e+04 7.59e-01 1.49e+03  -0.3 1.47e-01   3.7 7.52e-02 6.53e-01h  1
 206r 2.3773977e+04 7.59e-01 1.34e+03  -0.3 1.21e-01   3.2 6.72e-01 1.21e-01h  1
 207r 2.3773977e+04 7.59e-01 2.08e+02  -0.3 5.14e-02   3.6 1.00e+00 1.00e+00h  1
 208r 2.3773977e+04 7.59e-01 3.96e+01  -0.3 2.94e-02   3.1 1.00e+00 1.00e+00f  1
 209r 2.3773977e+04 7.59e-01 5.34e+01  -0.3 1.19e-01   2.7 1.00e+00 1.00e+00f  1
iter    objective    inf_pr   inf_du lg(mu)  ||d||  lg(rg) alpha_du alpha_pr  ls
 210r 2.3773977e+04 7.59e-01 5.24e+01  -0.3 4.35e-02   3.1 1.00e+00 8.54e-01f  1
 211r 2.3773977e+04 7.59e-01 1.37e+01  -0.3 3.42e-02   2.6 1.00e+00 1.00e+00f  1
 212r 2.3773977e+04 7.59e-01 8.15e+01  -1.0 4.77e-02   2.1 1.00e+00 8.20e-01f  1
 213r 2.3773977e+04 7.59e-01 3.80e+00  -1.0 8.56e-02   1.6 1.00e+00 1.00e+00f  1
 214r 2.3773977e+04 7.60e-01 9.61e+01  -1.7 9.09e-02   1.2 9.27e-01 7.89e-01f  1
 215r 2.3773977e+04 7.60e-01 9.06e+01  -1.7 1.32e-01   0.7 7.56e-01 1.00e+00f  1
 216r 2.3773977e+04 7.64e-01 5.89e+01  -1.7 5.38e-01   0.2 4.85e-01 1.00e+00f  1
 217r 2.3773977e+04 7.66e-01 4.61e+01  -1.7 1.83e+00  -0.3 3.33e-01 2.45e-01f  1
 218r 2.3773977e+04 7.67e-01 7.70e+01  -1.7 2.96e+00  -0.7 1.54e-01 2.89e-01f  1
 219r 2.3773977e+04 7.68e-01 7.57e+01  -1.7 1.85e+01  -1.2 2.45e-02 1.19e-02f  1
iter    objective    inf_pr   inf_du lg(mu)  ||d||  lg(rg) alpha_du alpha_pr  ls
 220r 2.3773977e+04 7.68e-01 8.83e+02  -1.7 2.59e+01  -1.7 5.91e-01 2.01e-02f  1
 221r 2.3773977e+04 7.69e-01 1.77e+03  -1.7 6.74e+00  -1.3 6.46e-01 5.08e-02f  1
 222r 2.3773977e+04 7.77e-01 6.04e+02  -1.7 4.64e+01  -1.7 3.78e-03 4.87e-01f  1
 223r 2.3773977e+04 7.78e-01 3.71e+02  -1.7 2.44e+00  -0.4 2.99e-01 1.95e-01f  1
 224r 2.3773977e+04 7.78e-01 3.77e+02  -1.7 1.32e+00   0.0 1.62e-01 1.85e-02f  1
 225r 2.3773977e+04 7.78e-01 2.21e+03  -1.7 3.49e+00  -0.5 5.60e-01 2.12e-02f  1
 226r 2.3773977e+04 7.78e-01 1.11e+03  -1.7 1.93e+00  -0.0 6.99e-03 6.75e-01f  1
 227r 2.3773977e+04 7.76e-01 2.04e+02  -1.7 1.83e+00  -0.5 1.00e+00 8.19e-01f  1
 228r 2.3773977e+04 7.75e-01 2.58e+02  -1.7 6.25e+00  -1.0 6.45e-01 1.10e-01f  1
 229r 2.3773977e+04 7.75e-01 1.69e+03  -1.7 2.33e-02   3.0 5.91e-02 1.00e+00f  1
iter    objective    inf_pr   inf_du lg(mu)  ||d||  lg(rg) alpha_du alpha_pr  ls
 230r 2.3773977e+04 7.75e-01 1.60e+03  -1.7 1.49e-02   2.6 1.00e+00 8.65e-02f  2
 231r 2.3773977e+04 7.75e-01 5.63e-01  -1.7 4.58e-03   2.1 1.00e+00 1.00e+00f  1
 232r 2.3773977e+04 7.75e-01 4.61e+00  -2.5 1.37e-02   1.6 1.00e+00 9.76e-01f  1
 233r 2.3773977e+04 7.75e-01 5.32e-01  -2.5 3.90e-02   1.1 1.00e+00 1.00e+00f  1
 234r 2.3773977e+04 7.75e-01 5.34e-01  -2.5 1.17e-01   0.7 1.00e+00 1.00e+00f  1
 235r 2.3773977e+04 7.75e-01 1.22e+02  -2.5 3.54e-01   0.2 1.00e+00 1.61e-01f  1
 236r 2.3773977e+04 7.76e-01 9.70e-01  -2.5 1.09e+00  -0.3 1.00e+00 1.00e+00f  1
 237r 2.3773977e+04 7.79e-01 6.41e+01  -2.5 3.65e+00  -0.8 4.02e-01 1.00e+00f  1
 238r 2.3773977e+04 7.79e-01 4.91e+02  -2.5 1.48e-01   3.3 3.83e-02 2.36e-02h  1
 239r 2.3773977e+04 7.79e-01 9.70e+02  -2.5 1.44e-01   2.8 2.28e-02 1.03e-01f  1
iter    objective    inf_pr   inf_du lg(mu)  ||d||  lg(rg) alpha_du alpha_pr  ls
 240r 2.3773977e+04 7.79e-01 7.60e+02  -2.5 1.63e-01   3.2 6.28e-02 1.97e-01h  1
 241r 2.3773977e+04 7.79e-01 5.79e+02  -2.5 1.16e-01   2.7 1.36e-01 2.39e-01f  1
 242r 2.3773977e+04 7.78e-01 1.43e+02  -2.5 9.81e-02   3.2 1.00e+00 1.00e+00h  1
 243r 2.3773977e+04 7.78e-01 6.27e+01  -2.5 8.10e-02   2.7 2.68e-01 5.37e-01f  1
 244r 2.3773977e+04 7.78e-01 3.81e+01  -2.5 2.94e-02   3.1 1.00e+00 1.00e+00f  1
 245r 2.3773977e+04 7.78e-01 7.22e+01  -2.5 3.47e-01   2.6 2.59e-01 3.06e-01f  1
 246r 2.3773977e+04 7.78e-01 9.67e+01  -2.5 8.83e-02   3.1 1.00e+00 8.35e-01f  1
 247r 2.3773977e+04 7.78e-01 1.24e+02  -2.5 3.68e-01   2.6 6.32e-01 5.86e-04f  1
 248r 2.3773961e+04 7.78e-01 1.21e+02  -2.5 1.69e+04    -  1.47e-02 8.30e-03f  1
 249r 2.3773973e+04 7.78e-01 1.20e+02  -2.5 4.25e+04    -  3.70e-03 8.22e-04f  1
iter    objective    inf_pr   inf_du lg(mu)  ||d||  lg(rg) alpha_du alpha_pr  ls
 250r 2.3773958e+04 7.78e-01 2.47e+02  -2.5 1.51e+04    -  8.96e-02 4.01e-03f  1
 251r 2.3773831e+04 7.78e-01 1.88e+03  -2.5 1.44e+04    -  6.77e-01 3.43e-02f  1
 252r 2.3773830e+04 7.78e-01 1.89e+03  -2.5 2.87e+03    -  3.25e-02 3.64e-04f  1
 253r 2.3773875e+04 7.81e-01 1.65e+03  -2.5 3.40e+03    -  5.82e-02 1.53e-01f  1
 254r 2.3773686e+04 7.80e-01 1.47e+03  -2.5 2.17e+03    -  1.55e-01 1.07e-01f  1
 255r 2.3773226e+04 7.78e-01 9.81e+02  -2.5 1.94e+03    -  7.26e-01 3.09e-01f  1
 256r 2.3772917e+04 7.78e-01 4.03e+02  -2.5 1.34e+03    -  1.00e+00 5.12e-01f  1
 257r 2.3772620e+04 7.78e-01 7.96e-01  -2.5 6.53e+02    -  1.00e+00 1.00e+00f  1
 258r 2.3772622e+04 7.78e-01 3.70e-02  -2.5 1.33e+01    -  1.00e+00 1.00e+00h  1
 259r 2.3772622e+04 7.78e-01 2.35e-02  -3.8 4.80e+00    -  1.00e+00 1.00e+00f  1
iter    objective    inf_pr   inf_du lg(mu)  ||d||  lg(rg) alpha_du alpha_pr  ls
 260r 2.3767861e+04 7.78e-01 3.25e-02  -3.8 1.08e+04    -  1.00e+00 1.00e+00f  1
 261r 2.3767839e+04 7.78e-01 3.93e-05  -3.8 3.57e+02    -  1.00e+00 1.00e+00h  1
 262r 2.3767839e+04 7.78e-01 6.31e-03  -5.7 5.63e-01    -  1.00e+00 1.00e+00f  1
 263r 2.3767839e+04 7.78e-01 3.27e-03  -5.7 2.56e-05   2.1 1.00e+00 1.00e+00h  1
 264r 2.3767839e+04 7.78e-01 3.27e-03  -5.7 7.68e-05   1.6 1.00e+00 1.00e+00h  1
 265r 2.3767839e+04 7.78e-01 3.27e-03  -5.7 2.31e-04   1.2 1.00e+00 1.00e+00h  1
 266r 2.3767839e+04 7.78e-01 3.27e-03  -5.7 6.92e-04   0.7 1.00e+00 1.00e+00h  1
 267r 2.3767839e+04 7.78e-01 3.27e-03  -5.7 2.07e-03   0.2 1.00e+00 1.00e+00h  1
 268r 2.3767839e+04 7.78e-01 3.27e-03  -5.7 6.22e-03  -0.3 1.00e+00 1.00e+00f  1
 269r 2.3767839e+04 7.78e-01 3.27e-03  -5.7 1.87e-02  -0.8 1.00e+00 1.00e+00f  1
iter    objective    inf_pr   inf_du lg(mu)  ||d||  lg(rg) alpha_du alpha_pr  ls
 270r 2.3767839e+04 7.78e-01 3.27e-03  -5.7 5.60e-02  -1.2 1.00e+00 1.00e+00f  1
 271r 2.3767839e+04 7.78e-01 3.27e-03  -5.7 1.68e-01  -1.7 1.00e+00 1.00e+00f  1
 272r 2.3767839e+04 7.78e-01 3.27e-03  -5.7 5.04e-01  -2.2 1.00e+00 1.00e+00f  1
 273r 2.3767839e+04 7.78e-01 3.27e-03  -5.7 1.51e+00  -2.7 1.00e+00 1.00e+00f  1
 274r 2.3767838e+04 7.78e-01 3.27e-03  -5.7 4.54e+00  -3.1 1.00e+00 1.00e+00f  1
 275r 2.3767837e+04 7.78e-01 3.27e-03  -5.7 1.36e+01  -3.6 1.00e+00 1.00e+00f  1
 276r 2.3767832e+04 7.78e-01 3.26e-03  -5.7 4.07e+01  -4.1 1.00e+00 1.00e+00f  1
 277r 2.3767818e+04 7.78e-01 3.24e-03  -5.7 1.21e+02  -4.6 1.00e+00 1.00e+00f  1
 278r 2.3767778e+04 7.78e-01 3.18e-03  -5.7 3.57e+02  -5.1 1.00e+00 1.00e+00f  1
 279r 2.3767661e+04 7.78e-01 3.00e-03  -5.7 1.01e+03  -5.5 1.00e+00 1.00e+00f  1
iter    objective    inf_pr   inf_du lg(mu)  ||d||  lg(rg) alpha_du alpha_pr  ls
 280r 2.3767341e+04 7.78e-01 2.59e-03  -5.7 2.59e+03  -6.0 1.00e+00 1.00e+00f  1
 281r 2.3766573e+04 7.78e-01 2.18e-03  -5.7 6.53e+03  -6.5 1.00e+00 1.00e+00f  1
 282r 2.3765060e+04 7.78e-01 5.56e-03  -5.7 2.70e+04  -7.0 1.00e+00 1.00e+00f  1
 283r 2.3764780e+04 7.78e-01 4.23e-01  -5.7 3.15e+04  -6.5 1.00e+00 5.56e-01f  1
 284r 2.3764780e+04 7.78e-01 3.07e+01  -5.7 2.27e+03  -5.2 1.00e+00 2.27e-06h  1
 285r 2.3764708e+04 7.78e-01 1.05e+03  -5.7 4.61e+03  -5.7 1.22e-01 1.00e+00f  1
 286r 2.3764628e+04 7.81e-01 7.46e+02  -5.7 4.46e+03  -6.2 2.37e-06 4.02e-01f  1
 287r 2.3764610e+04 7.82e-01 7.23e+02  -5.7 7.12e+03  -6.6 2.77e-02 3.65e-02f  1
 288r 2.3764610e+04 7.82e-01 7.42e+02  -5.7 1.91e+04  -7.1 1.00e+00 4.03e-07h  1
 289r 2.3762047e+04 4.76e+00 1.94e+02  -5.7 8.12e+04  -7.6 5.14e-03 9.12e-01f  1
iter    objective    inf_pr   inf_du lg(mu)  ||d||  lg(rg) alpha_du alpha_pr  ls
 290r 2.3762047e+04 4.75e+00 5.59e+02  -5.7 4.65e+01   2.3 1.39e-05 9.29e-06h  1
 291r 2.3762047e+04 1.14e+01 2.88e+13  -5.7 3.60e+01   1.8 1.38e-02 6.96e-03f  1
WARNING: Problem in step computation; switching to emergency mode.
 292r 2.3762047e+04 1.14e+01 2.88e+13  -5.7 3.60e+01  19.5 0.00e+00 0.00e+00R  1
WARNING: Problem in step computation; switching to emergency mode.
Restoration phase is called at point that is almost feasible,
  with constraint violation 0.000000e+00. Abort.
Restoration phase in the restoration phase failed.

Number of Iterations....: 292

                                   (scaled)                 (unscaled)
Objective...............:   2.3762047090427513e+04    2.3762047090427513e+04
Dual infeasibility......:   2.8780216206534941e+13    2.8780216206534941e+13
Constraint violation....:   1.1442201311149649e+01    1.1442201311149649e+01
Complementarity.........:   4.9564926701235294e-06    4.9564926701235294e-06
Overall NLP error.......:   2.8780216206534941e+13    2.8780216206534941e+13


Number of objective function evaluations             = 991
Number of objective gradient evaluations             = 88
Number of equality constraint evaluations            = 993
Number of inequality constraint evaluations          = 0
Number of equality constraint Jacobian evaluations   = 305
Number of inequality constraint Jacobian evaluations = 0
Number of Lagrangian Hessian evaluations             = 293
Total CPU secs in IPOPT (w/o function evaluations)   =      0.453
Total CPU secs in NLP function evaluations           =      8.550

EXIT: Restoration Failed!
